results_rootrelaxation/bin018_050_047.srr.sol
solution status: optimal solution found
objective value:                                    0
_var190_                           0.0586707008302904 	(obj:0)
_var242_                            0.266767169044453 	(obj:0)
_var613_                             0.24318587358802 	(obj:0)
_var2200_                           0.269156525214411 	(obj:0)
_var2710_                           0.177514615878095 	(obj:0)
_var2719_                           0.299312417993602 	(obj:0)
_var2721_                          0.0900588082645367 	(obj:0)
_var2725_                            0.30815449764019 	(obj:0)
_var2752_                          0.0649455749285795 	(obj:0)
_var2756_                           0.192319208453005 	(obj:0)
_var2757_                           0.055934915622905 	(obj:0)
_var2760_                           0.131117449535491 	(obj:0)
_var2761_                          0.0112034800295419 	(obj:0)
_var2765_                           0.273291204627891 	(obj:0)
_var2766_                           0.196415669389809 	(obj:0)
_var2767_                           0.125341545354067 	(obj:0)
_var2768_                           0.094227736214256 	(obj:0)
_var2771_                           0.380666857042524 	(obj:0)
_var2772_                         0.00480887614862536 	(obj:0)
_var2774_                           0.120866936888619 	(obj:0)
_var2776_                           0.329493501230849 	(obj:0)
_var2777_                          0.0558913609107661 	(obj:0)
_var2779_                           0.211695011323032 	(obj:0)
_var2782_                          0.0943681858043426 	(obj:0)
_var2789_                          0.0102526080590423 	(obj:0)
_var2795_                            0.19918394349775 	(obj:0)
_var2798_                            0.12727732986978 	(obj:0)
_var2799_                          0.0220834104643732 	(obj:0)
_var2801_                          0.0648950317808858 	(obj:0)
_var2803_                           0.208860300829534 	(obj:0)
_var2807_                           0.170777158195433 	(obj:0)
_var2808_                           0.174681874031303 	(obj:0)
_var2809_                          0.0614994761986539 	(obj:0)
_var2813_                          0.0510014506949841 	(obj:0)
_var2815_                           0.229234190706923 	(obj:0)
_var2816_                            0.10142302278025 	(obj:0)
_var2818_                           0.028904867744249 	(obj:0)
_var2823_                          0.0899563024429391 	(obj:0)
_var2824_                           0.326530791427358 	(obj:0)
_var2825_                           0.134149763086381 	(obj:0)
_var2835_                           0.159388059046631 	(obj:0)
_var2837_                           0.112026037234934 	(obj:0)
_var2839_                          0.0710986126494776 	(obj:0)
_var2842_                          0.0889475798430108 	(obj:0)
_var2845_                           0.182872123352396 	(obj:0)
_var2847_                           0.159689329879477 	(obj:0)
_var2848_                           0.166653190637717 	(obj:0)
_var2851_                            0.17614395424472 	(obj:0)
_var2852_                           0.114386368705616 	(obj:0)
_var2854_                           0.157824765290312 	(obj:0)
_var2855_                           0.067091477609106 	(obj:0)
_var2856_                           0.197722176480868 	(obj:0)
_var2857_                          0.0890268013374907 	(obj:0)
_var2859_                           0.133687410337555 	(obj:0)
_var2861_                           0.082886927848893 	(obj:0)
_var2864_                          0.0143380739113661 	(obj:0)
_var2865_                          0.0953722812449392 	(obj:0)
_var2866_                           0.153093707533805 	(obj:0)
_var2868_                          0.0148506806615059 	(obj:0)
_var2869_                           0.112649797437456 	(obj:0)
_var2870_                           0.137788103986688 	(obj:0)
_var2871_                            0.20001802352021 	(obj:0)
_var2872_                           0.253675279237255 	(obj:0)
_var2874_                          0.0864959048812346 	(obj:0)
_var2875_                          0.0420453495297647 	(obj:0)
_var2878_                          0.0753613126857745 	(obj:0)
_var2879_                          0.0188506168180286 	(obj:0)
_var2881_                          0.0399974172504395 	(obj:0)
_var2882_                           0.189698154408068 	(obj:0)
_var2883_                           0.129325385714116 	(obj:0)
_var2884_                          0.0650915953641579 	(obj:0)
_var2887_                           0.269682083143817 	(obj:0)
_var2890_                           0.215102184365629 	(obj:0)
_var2896_                           0.286675815275162 	(obj:0)
_var2897_                            0.11301259042041 	(obj:0)
_var2898_                          0.0528886829816753 	(obj:0)
_var2899_                           0.229937283302414 	(obj:0)
_var2900_                         0.00271613622226499 	(obj:0)
_var2901_                           0.169703150850307 	(obj:0)
_var2903_                          0.0596772150924068 	(obj:0)
_var2910_                           0.221128495485969 	(obj:0)
_var2911_                          0.0708638839629406 	(obj:0)
_var2914_                          0.0401551760152936 	(obj:0)
_var2915_                           0.282367590767706 	(obj:0)
_var2916_                           0.150466265996815 	(obj:0)
_var2917_                          0.0870016570547241 	(obj:0)
_var2918_                           0.137846697798508 	(obj:0)
_var2919_                          0.0730784389731765 	(obj:0)
_var2921_                           0.136829184621538 	(obj:0)
_var2923_                          0.0674886898323763 	(obj:0)
_var2924_                          0.0704673586582505 	(obj:0)
_var2925_                            0.29483388926049 	(obj:0)
_var2926_                          0.0475488240741729 	(obj:0)
_var2927_                         0.00768374973843758 	(obj:0)
_var2928_                           0.328309505661944 	(obj:0)
_var2931_                          0.0588996974744975 	(obj:0)
_var2932_                          0.0495840256593453 	(obj:0)
_var2935_                          0.0355313391920991 	(obj:0)
_var2936_                           0.127082365471134 	(obj:0)
_var2938_                          0.0291817316279714 	(obj:0)
_var2940_                          0.0536015437129535 	(obj:0)
_var2941_                         0.00738921721822783 	(obj:0)
_var2943_                          0.0326326135931819 	(obj:0)
_var2947_                           0.197752875249763 	(obj:0)
_var2948_                          0.0708304171860956 	(obj:0)
_var2950_                          0.0628905244243174 	(obj:0)
_var2952_                          0.0151974897202287 	(obj:0)
_var2953_                           0.125835950559345 	(obj:0)
_var2954_                          0.0845231323431307 	(obj:0)
_var2956_                          0.0841824646158909 	(obj:0)
_var2960_                          0.0657260374153743 	(obj:0)
_var2963_                          0.0610115969160779 	(obj:0)
_var2964_                         0.00352285278320486 	(obj:0)
_var2966_                          0.0690886477895088 	(obj:0)
_var2968_                           0.135856347852171 	(obj:0)
_var2970_                          0.0111100778407426 	(obj:0)
_var2972_                           0.136226493256346 	(obj:0)
_var2973_                           0.105811843904302 	(obj:0)
_var2974_                          0.0259014762519528 	(obj:0)
_var2976_                          0.0225859572629569 	(obj:0)
_var2979_                           0.148225865931785 	(obj:0)
_var2981_                           0.100149673336248 	(obj:0)
_var2983_                          0.0368322112534233 	(obj:0)
_var2984_                          0.0849864239422395 	(obj:0)
_var2985_                           0.135495245046215 	(obj:0)
_var2987_                          0.0538446411491371 	(obj:0)
_var2988_                           0.138491332499053 	(obj:0)
_var2989_                           0.097492323567121 	(obj:0)
_var2990_                          0.0129134143930897 	(obj:0)
_var2992_                          0.0575535935850227 	(obj:0)
_var2996_                          0.0449375168643657 	(obj:0)
_var2997_                          0.0210584508702643 	(obj:0)
_var2998_                          0.0231672327389409 	(obj:0)
_var2999_                          0.0600435542839063 	(obj:0)
_var3001_                          0.0199958760434911 	(obj:0)
_var3004_                           0.135775099888528 	(obj:0)
_var3005_                          0.0261219521846566 	(obj:0)
_var3006_                          0.0863725800436851 	(obj:0)
_var3007_                          0.0534175752831468 	(obj:0)
_var3008_                             0.1857268155894 	(obj:0)
_var3011_                            0.12242001731171 	(obj:0)
_var3013_                          0.0793965823358582 	(obj:0)
_var3014_                           0.122033712807955 	(obj:0)
_var3017_                          0.0325175584890451 	(obj:0)
_var3020_                          0.0854639033978367 	(obj:0)
_var3021_                           0.085863121821902 	(obj:0)
_var3022_                            0.06760213534903 	(obj:0)
_var3023_                          0.0121997635385735 	(obj:0)
_var3025_                          0.0472022997733548 	(obj:0)
_var3027_                           0.068794978754659 	(obj:0)
_var3029_                         0.00424857413552887 	(obj:0)
_var3039_                          0.0180185624628184 	(obj:0)
