results_rootrelaxation/bin018_050_047.srr.log
SCIP version 8.0.3.5 [precision: 8 byte] [memory: block] [mode: optimized] [LP solver: Soplex 6.0.1.3] [GitHash: 438792519e]
Copyright (c) 2002-2023 Zuse Institute Berlin (ZIB)

External libraries: 
  Readline 8.1         GNU library for command line editing (gnu.org/s/readline)
  Soplex 6.0.1.3       Linear Programming Solver developed at Zuse Institute Berlin (soplex.zib.de) [GitHash: 713be0fe]
  CppAD 20180000.0     Algorithmic Differentiation of C++ algorithms developed by B. Bell (github.com/coin-or/CppAD)
  ZLIB 1.2.11          General purpose compression library by J. Gailly and M. Adler (zlib.net)
  bliss 0.77           Computing Graph Automorphism Groups by T. Junttila and P. Kaski (www.tcs.hut.fi/Software/bliss/)

user parameter file <scip.set> not found - using default parameters

srr/relaxation = TRUE

read problem <instances/bin018_050_047.srr>
============

Original problem: 
original problem has 0 variables (0 bin, 0 int, 0 impl, 0 cont) and 170 constraints

presolving:
presolving (1 rounds: 1 fast, 1 medium, 1 exhaustive):
 0 deleted vars, 0 deleted constraints, 0 added constraints, 0 tightened bounds, 0 added holes, 0 changed sides, 0 changed coefficients
 0 implications, 0 cliques
presolved problem has 0 variables (0 bin, 0 int, 0 impl, 0 cont) and 170 constraints
    170 constraints of type <linear>
Presolving Time: 0.00

 time | node  | left  |LP iter|LP it/n|mem/heur|mdpt |vars |cons |rows |cuts |sepa|confs|strbr|  dualbound   | primalbound  |  gap   | compl. 
  0.0s|     1 |     0 |     1 |     - |   922k |   0 |   1 | 170 | 170 |   0 |  0 |   0 |   0 |      --      |      --      |    Inf | unknown
  0.2s|     1 |     0 |  1139 |     - |  7047k |   0 |1615 | 170 | 170 |   0 |  0 |   0 |   0 |      --      |      --      |    Inf | unknown
r 0.8s|     1 |     0 |  5805 |     - |simplero|   0 |2703 | 170 | 170 |   0 |  0 |   0 |   0 |      --      | 3.346770e+01 |    Inf | unknown
r 0.8s|     1 |     0 |  5897 |     - |simplero|   0 |2720 | 170 | 170 |   0 |  0 |   0 |   0 |      --      | 3.199229e+01 |    Inf | unknown
r 0.8s|     1 |     0 |  6001 |     - |simplero|   0 |2737 | 170 | 170 |   0 |  0 |   0 |   0 |      --      | 3.021545e+01 |    Inf | unknown
r 0.9s|     1 |     0 |  6153 |     - |simplero|   0 |2754 | 170 | 170 |   0 |  0 |   0 |   0 |      --      | 2.818546e+01 |    Inf | unknown
r 0.9s|     1 |     0 |  6285 |     - |simplero|   0 |2771 | 170 | 170 |   0 |  0 |   0 |   0 |      --      | 2.605724e+01 |    Inf | unknown
r 0.9s|     1 |     0 |  6420 |     - |simplero|   0 |2788 | 170 | 170 |   0 |  0 |   0 |   0 |      --      | 2.356322e+01 |    Inf | unknown
r 0.9s|     1 |     0 |  6529 |     - |simplero|   0 |2805 | 170 | 170 |   0 |  0 |   0 |   0 |      --      | 2.123112e+01 |    Inf | unknown
r 0.9s|     1 |     0 |  6607 |     - |simplero|   0 |2805 | 170 | 170 |   0 |  0 |   0 |   0 |      --      | 2.082786e+01 |    Inf | unknown
r 0.9s|     1 |     0 |  6627 |     - |simplero|   0 |2805 | 170 | 170 |   0 |  0 |   0 |   0 |      --      | 2.079874e+01 |    Inf | unknown
r 0.9s|     1 |     0 |  6770 |     - |simplero|   0 |2822 | 170 | 170 |   0 |  0 |   0 |   0 |      --      | 1.855349e+01 |    Inf | unknown
r 1.0s|     1 |     0 |  6829 |     - |simplero|   0 |2822 | 170 | 170 |   0 |  0 |   0 |   0 |      --      | 1.836120e+01 |    Inf | unknown
r 1.0s|     1 |     0 |  6837 |     - |simplero|   0 |2822 | 170 | 170 |   0 |  0 |   0 |   0 |      --      | 1.835909e+01 |    Inf | unknown
r 1.0s|     1 |     0 |  6908 |     - |simplero|   0 |2839 | 170 | 170 |   0 |  0 |   0 |   0 |      --      | 1.713280e+01 |    Inf | unknown
 time | node  | left  |LP iter|LP it/n|mem/heur|mdpt |vars |cons |rows |cuts |sepa|confs|strbr|  dualbound   | primalbound  |  gap   | compl. 
r 1.0s|     1 |     0 |  6994 |     - |simplero|   0 |2839 | 170 | 170 |   0 |  0 |   0 |   0 |      --      | 1.650399e+01 |    Inf | unknown
r 1.0s|     1 |     0 |  7045 |     - |simplero|   0 |2839 | 170 | 170 |   0 |  0 |   0 |   0 |      --      | 1.620932e+01 |    Inf | unknown
r 1.0s|     1 |     0 |  7054 |     - |simplero|   0 |2839 | 170 | 170 |   0 |  0 |   0 |   0 |      --      | 1.619431e+01 |    Inf | unknown
r 1.0s|     1 |     0 |  7196 |     - |simplero|   0 |2856 | 170 | 170 |   0 |  0 |   0 |   0 |      --      | 1.429602e+01 |    Inf | unknown
r 1.0s|     1 |     0 |  7280 |     - |simplero|   0 |2856 | 170 | 170 |   0 |  0 |   0 |   0 |      --      | 1.393397e+01 |    Inf | unknown
r 1.0s|     1 |     0 |  7287 |     - |simplero|   0 |2856 | 170 | 170 |   0 |  0 |   0 |   0 |      --      | 1.392655e+01 |    Inf | unknown
r 1.0s|     1 |     0 |  7288 |     - |simplero|   0 |2856 | 170 | 170 |   0 |  0 |   0 |   0 |      --      | 1.392647e+01 |    Inf | unknown
r 1.0s|     1 |     0 |  7421 |     - |simplero|   0 |2873 | 170 | 170 |   0 |  0 |   0 |   0 |      --      | 1.196649e+01 |    Inf | unknown
r 1.0s|     1 |     0 |  7496 |     - |simplero|   0 |2873 | 170 | 170 |   0 |  0 |   0 |   0 |      --      | 1.158023e+01 |    Inf | unknown
r 1.1s|     1 |     0 |  7519 |     - |simplero|   0 |2873 | 170 | 170 |   0 |  0 |   0 |   0 |      --      | 1.156804e+01 |    Inf | unknown
r 1.1s|     1 |     0 |  7523 |     - |simplero|   0 |2873 | 170 | 170 |   0 |  0 |   0 |   0 |      --      | 1.156789e+01 |    Inf | unknown
r 1.1s|     1 |     0 |  7525 |     - |simplero|   0 |2873 | 170 | 170 |   0 |  0 |   0 |   0 |      --      | 1.156788e+01 |    Inf | unknown
r 1.1s|     1 |     0 |  7651 |     - |simplero|   0 |2890 | 170 | 170 |   0 |  0 |   0 |   0 |      --      | 9.980068e+00 |    Inf | unknown
r 1.1s|     1 |     0 |  7796 |     - |simplero|   0 |2890 | 170 | 170 |   0 |  0 |   0 |   0 |      --      | 8.652326e+00 |    Inf | unknown
r 1.1s|     1 |     0 |  7818 |     - |simplero|   0 |2890 | 170 | 170 |   0 |  0 |   0 |   0 |      --      | 8.561768e+00 |    Inf | unknown
 time | node  | left  |LP iter|LP it/n|mem/heur|mdpt |vars |cons |rows |cuts |sepa|confs|strbr|  dualbound   | primalbound  |  gap   | compl. 
r 1.1s|     1 |     0 |  7822 |     - |simplero|   0 |2890 | 170 | 170 |   0 |  0 |   0 |   0 |      --      | 8.560949e+00 |    Inf | unknown
r 1.1s|     1 |     0 |  7980 |     - |simplero|   0 |2907 | 170 | 170 |   0 |  0 |   0 |   0 |      --      | 6.805943e+00 |    Inf | unknown
r 1.1s|     1 |     0 |  8028 |     - |simplero|   0 |2907 | 170 | 170 |   0 |  0 |   0 |   0 |      --      | 6.597972e+00 |    Inf | unknown
r 1.1s|     1 |     0 |  8041 |     - |simplero|   0 |2907 | 170 | 170 |   0 |  0 |   0 |   0 |      --      | 6.569834e+00 |    Inf | unknown
r 1.1s|     1 |     0 |  8051 |     - |simplero|   0 |2907 | 170 | 170 |   0 |  0 |   0 |   0 |      --      | 6.565103e+00 |    Inf | unknown
r 1.2s|     1 |     0 |  8185 |     - |simplero|   0 |2924 | 170 | 170 |   0 |  0 |   0 |   0 |      --      | 5.231563e+00 |    Inf | unknown
  1.2s|     1 |     0 |  8240 |     - |    14M |   0 |2924 | 170 | 170 |   0 |  0 |   0 |   0 |      --      | 5.231563e+00 |    Inf | unknown
r 1.2s|     1 |     0 |  8240 |     - |simplero|   0 |2924 | 170 | 170 |   0 |  0 |   0 |   0 |      --      | 5.102151e+00 |    Inf | unknown
r 1.2s|     1 |     0 |  8266 |     - |simplero|   0 |2924 | 170 | 170 |   0 |  0 |   0 |   0 |      --      | 5.078007e+00 |    Inf | unknown
r 1.2s|     1 |     0 |  8272 |     - |simplero|   0 |2924 | 170 | 170 |   0 |  0 |   0 |   0 |      --      | 5.077387e+00 |    Inf | unknown
r 1.2s|     1 |     0 |  8401 |     - |simplero|   0 |2941 | 170 | 170 |   0 |  0 |   0 |   0 |      --      | 3.866714e+00 |    Inf | unknown
r 1.2s|     1 |     0 |  8466 |     - |simplero|   0 |2941 | 170 | 170 |   0 |  0 |   0 |   0 |      --      | 3.668275e+00 |    Inf | unknown
r 1.2s|     1 |     0 |  8487 |     - |simplero|   0 |2941 | 170 | 170 |   0 |  0 |   0 |   0 |      --      | 3.640610e+00 |    Inf | unknown
r 1.2s|     1 |     0 |  8639 |     - |simplero|   0 |2958 | 170 | 170 |   0 |  0 |   0 |   0 |      --      | 2.486181e+00 |    Inf | unknown
r 1.2s|     1 |     0 |  8666 |     - |simplero|   0 |2958 | 170 | 170 |   0 |  0 |   0 |   0 |      --      | 2.415549e+00 |    Inf | unknown
 time | node  | left  |LP iter|LP it/n|mem/heur|mdpt |vars |cons |rows |cuts |sepa|confs|strbr|  dualbound   | primalbound  |  gap   | compl. 
r 1.2s|     1 |     0 |  8687 |     - |simplero|   0 |2958 | 170 | 170 |   0 |  0 |   0 |   0 |      --      | 2.395674e+00 |    Inf | unknown
r 1.3s|     1 |     0 |  8872 |     - |simplero|   0 |2975 | 170 | 170 |   0 |  0 |   0 |   0 |      --      | 1.646011e+00 |    Inf | unknown
r 1.3s|     1 |     0 |  8895 |     - |simplero|   0 |2975 | 170 | 170 |   0 |  0 |   0 |   0 |      --      | 1.635544e+00 |    Inf | unknown
r 1.3s|     1 |     0 |  9021 |     - |simplero|   0 |2992 | 170 | 170 |   0 |  0 |   0 |   0 |      --      | 1.156832e+00 |    Inf | unknown
r 1.3s|     1 |     0 |  9077 |     - |simplero|   0 |2992 | 170 | 170 |   0 |  0 |   0 |   0 |      --      | 1.057141e+00 |    Inf | unknown
r 1.3s|     1 |     0 |  9083 |     - |simplero|   0 |2992 | 170 | 170 |   0 |  0 |   0 |   0 |      --      | 1.056666e+00 |    Inf | unknown
r 1.3s|     1 |     0 |  9148 |     - |simplero|   0 |3009 | 170 | 170 |   0 |  0 |   0 |   0 |      --      | 7.270490e-01 |    Inf | unknown
r 1.3s|     1 |     0 |  9209 |     - |simplero|   0 |3009 | 170 | 170 |   0 |  0 |   0 |   0 |      --      | 6.340648e-01 |    Inf | unknown
r 1.3s|     1 |     0 |  9228 |     - |simplero|   0 |3009 | 170 | 170 |   0 |  0 |   0 |   0 |      --      | 6.268341e-01 |    Inf | unknown
r 1.3s|     1 |     0 |  9239 |     - |simplero|   0 |3009 | 170 | 170 |   0 |  0 |   0 |   0 |      --      | 6.257304e-01 |    Inf | unknown
r 1.3s|     1 |     0 |  9349 |     - |simplero|   0 |3026 | 170 | 170 |   0 |  0 |   0 |   0 |      --      | 1.619983e-01 |    Inf | unknown
r 1.3s|     1 |     0 |  9386 |     - |simplero|   0 |3026 | 170 | 170 |   0 |  0 |   0 |   0 |      --      | 9.365128e-02 |    Inf | unknown
r 1.3s|     1 |     0 |  9397 |     - |simplero|   0 |3026 | 170 | 170 |   0 |  0 |   0 |   0 |      --      | 8.772445e-02 |    Inf | unknown
r 1.4s|     1 |     0 |  9411 |     - |simplero|   0 |3043 | 170 | 170 |   0 |  0 |   0 |   0 |      --      | 0.000000e+00 |    Inf | unknown
  1.4s|     1 |     0 |  9411 |     - |    16M |   0 |3043 | 170 | 170 |   0 |  0 |   0 |   0 | 0.000000e+00 | 0.000000e+00 |   0.00%| unknown
 time | node  | left  |LP iter|LP it/n|mem/heur|mdpt |vars |cons |rows |cuts |sepa|confs|strbr|  dualbound   | primalbound  |  gap   | compl. 
  1.4s|     1 |     0 |  9411 |     - |    16M |   0 |3043 | 170 | 170 |   0 |  0 |   0 |   0 | 0.000000e+00 | 0.000000e+00 |   0.00%| unknown

SCIP Status        : problem is solved [optimal solution found]
Solving Time (sec) : 1.36
Solving Nodes      : 1
Primal Bound       : +0.00000000000000e+00 (56 solutions)
Dual Bound         : +0.00000000000000e+00
Gap                : 0.00 %

written transformed problem to file <results_rootrelaxation/bin018_050_047.srr.lp>
written transformed problem to file <results_rootrelaxation/bin018_050_047.srr.cip>

written solution information to file <results_rootrelaxation/bin018_050_047.srr.sol>



